17
energy=-197.512345 energy_units=Hartree pbc="F F F" Properties=species:S:1:pos:R:3:canonical_id:I:1
H   0.155883090000000 -1.150128540000000  1.318718930000000 6
H  -0.729214130000000  0.773482180000000  2.735343120000000 4
H  -1.654554570000000  0.368991120000000  0.416121940000000 5
C  -0.622217260000000  0.711674530000000  0.568630830000000 2
H  -0.430190120000000  1.409669750000000 -0.256589590000000 5
H   1.362212400000000 -0.137362300000000  0.573986050000000 6
C   0.326973810000000 -0.483456640000000  0.462914860000000 3
H  -0.028774050000000  0.409679970000000 -2.216279120000000 4
H   0.781975050000000 -2.188857870000000 -0.790077500000000 5
C   0.186809670000000 -1.266215340000000 -0.846645490000000 2
C   0.603198100000000 -0.468952730000000 -2.073458160000000 1
H  -1.184901930000000  2.290891330000000  1.964906700000000 4
H   0.509709840000000  1.816601530000000  2.054025330000000 4
C  -0.503400360000000  1.438950690000000  1.899244130000000 1
H   0.540627880000000 -1.063048530000000 -2.988846690000000 4
H   1.632438820000000 -0.114717960000000 -1.983268720000000 4
H  -0.852304280000000 -1.604911080000000 -0.955378130000000 5
17
energy=-197.51198 energy_units=Hartree pbc="F F F" Properties=species:S:1:pos:R:3:canonical_id:I:1
H   0.600015590000000 -2.021468300000000  2.041023550000000 4
H  -0.867701050000000  1.991254310000000 -2.374353880000000 4
C  -0.520488350000000  0.057055980000000  0.529876270000000 3
H  -0.012705010000000  2.411265700000000 -0.892752970000000 4
C   1.316159200000000 -1.416118960000000  1.481030490000000 1
C  -0.338792450000000  1.573913460000000 -1.513608090000000 1
H  -0.204067050000000  0.889196760000000  1.171168970000000 6
H   0.560303280000000  1.085537040000000 -1.894261950000000 4
C  -1.209121770000000  0.609248520000000 -0.722390820000000 2
H  -1.518243190000000 -0.227541000000000 -1.363111240000000 5
C   0.683865000000000 -0.835807290000000  0.225235040000000 2
H  -2.145481680000000  1.110058000000000 -0.437590910000000 5
H   0.373611100000000 -1.644611100000000 -0.450035370000000 5
H  -1.240297400000000 -0.510954100000000  1.134329360000000 6
H   1.432403950000000 -0.265659280000000 -0.340168520000000 5
H   2.175434740000000 -2.051913900000000  1.253063060000000 4
H   1.661531120000000 -0.625646930000000  2.150987110000000 4
17
energy=-197.510442 energy_units=Hartree pbc="F F F" Properties=species:S:1:pos:R:3:canonical_id:I:1
C  -0.080886760000000  0.022625780000000 -0.740187660000000 3
H  -3.038223950000000 -0.184335620000000  1.117250940000000 4
C  -2.423281260000000  0.033155470000000  0.240266370000000 1
H  -0.588047340000000  0.291294380000000  1.344402650000000 5
H  -0.484674010000000 -0.516478810000000 -1.607624200000000 6
H  -2.568716330000000  1.086496640000000 -0.009314630000000 4
H   3.149367150000000  0.276746430000000  0.600377520000000 4
H   1.641464240000000  0.375223350000000  1.498452990000000 4
H   1.929531250000000 -0.237540050000000 -1.499096420000000 5
H  -0.169492270000000  1.085232890000000 -0.998745690000000 6
H  -0.831646620000000 -1.332241730000000  0.761812710000000 5
H   2.010291230000000  1.579755430000000  0.272898280000000 4
C   2.086651080000000  0.516708180000000  0.511755080000000 1
C  -0.953742050000000 -0.277739160000000  0.479805210000000 2
H   1.477991500000000 -1.397460170000000 -0.278488280000000 5
H  -2.820845060000000 -0.551846510000000 -0.591970040000000 4
C   1.395847550000000 -0.334599370000000 -0.542826480000000 2
