17
energy=-197.512345 energy_units=Hartree pbc="F F F" Properties=species:S:1:pos:R:3:canonical_id:I:1
H   0.155883090000000 -1.150128540000000  1.318718930000000 6
H  -0.729214130000000  0.773482180000000  2.735343120000000 4
H  -1.654554570000000  0.368991120000000  0.416121940000000 5
C  -0.622217260000000  0.711674530000000  0.568630830000000 2
H  -0.430190120000000  1.409669750000000 -0.256589590000000 5
H   1.362212400000000 -0.137362300000000  0.573986050000000 6
C   0.326973810000000 -0.483456640000000  0.462914860000000 3
H  -0.028774050000000  0.409679970000000 -2.216279120000000 4
H   0.781975050000000 -2.188857870000000 -0.790077500000000 5
C   0.186809670000000 -1.266215340000000 -0.846645490000000 2
C   0.603198100000000 -0.468952730000000 -2.073458160000000 1
H  -1.184901930000000  2.290891330000000  1.964906700000000 4
H   0.509709840000000  1.816601530000000  2.054025330000000 4
C  -0.503400360000000  1.438950690000000  1.899244130000000 1
H   0.540627880000000 -1.063048530000000 -2.988846690000000 4
H   1.632438820000000 -0.114717960000000 -1.983268720000000 4
H  -0.852304280000000 -1.604911080000000 -0.955378130000000 5
